86 31 2 34 44 22 52 8 28 67 1 33 73 50 98 38 60 41 45 85 70 40 74 26 62 3 61 75 89 69 96 35 43 72 51 84 64 39 92 19 24 63 6 5 88 57 48 79 11 87 29 90 94 78 9 12 82 49 71 81 56 25 23 27 53 80 13 66 32 99 83 47 37 55 76 95 16 77 21 20 7 54 58 10 97 59 65 0 93 42 15 30 36 46 18 17 68 4 91 14